Normalized Data/p10_1050_tsplib0_normalized_splitx10_0.vrp
NAME:p10_1050_tsplib0_NORMALIZED_splitx10_
BEST_KNOWN: 0
COMMENT: 0
DIMENSION: 833
CAPACITY: 1000
EDGE_WEIGHT_FORMAT: FUNCTION
EDGE_WEIGHT_TYPE: EXACT_2D
NODE_COORD_SECTION
1 0.00000 0.00000
2 -13 -13
3 -13 -13
4 -13 -13
5 -13 -13
6 -13 -13
7 -13 -13
8 1 -9
9 1 -9
10 -14 10
11 -14 10
12 -14 10
13 -14 10
14 -14 10
15 -14 10
16 10 0
17 10 0
18 10 0
19 10 0
20 20 -15
21 20 -15
22 20 -15
23 20 -15
24 -2 -1
25 -2 -1
26 -2 -1
27 -2 -1
28 -2 -1
29 -2 -1
30 15 15
31 15 15
32 15 15
33 15 15
34 15 15
35 15 15
36 20 10
37 20 10
38 20 10
39 20 10
40 20 10
41 -9 24
42 -9 24
43 -9 24
44 -9 24
45 -9 24
46 5 31
47 5 31
48 20 30
49 20 30
50 20 30
51 20 30
52 0 16
53 0 16
54 27 0
55 27 0
56 27 0
57 27 0
58 27 0
59 27 22
60 27 22
61 27 -11
62 27 -11
63 27 -11
64 27 -11
65 27 -11
66 27 -11
67 -14 1
68 -14 1
69 -2 9
70 -2 9
71 -2 9
72 -2 9
73 -26 21
74 -26 21
75 27 13
76 27 13
77 27 13
78 27 13
79 27 13
80 27 13
81 31 -21
82 31 -21
83 31 -21
84 9 -22
85 9 -22
86 9 -22
87 9 -22
88 9 -22
89 -9 -22
90 -9 -22
91 -9 -22
92 -24 -7
93 -24 -7
94 -24 -7
95 -24 -7
96 -28 8
97 -28 8
98 -28 8
99 -28 8
100 -28 8
101 -18 29
102 -18 29
103 -18 29
104 6 11
105 6 11
106 6 11
107 6 11
108 6 11
109 6 11
110 6 11
111 20 -1
112 20 -1
113 0 -19
114 0 -19
115 0 -19
116 17 -9
117 17 -9
118 17 -9
119 8 -9
120 8 -9
121 8 -9
122 8 -9
123 8 -9
124 -4 41
125 -4 41
126 -4 41
127 -4 41
128 -4 41
129 -4 41
130 -13 18
131 -13 18
132 -13 18
133 -13 18
134 -9 -6
135 -9 -6
136 -9 -6
137 -9 -6
138 -9 -6
139 15 5
140 15 5
141 15 5
142 15 5
143 15 5
144 20 15
145 20 15
146 20 15
147 20 15
148 20 15
149 19 -25
150 19 -25
151 19 -25
152 19 -25
153 19 -25
154 19 -25
155 25 -20
156 25 -20
157 25 -20
158 12 31
159 12 31
160 12 31
161 12 31
162 12 31
163 12 31
164 -5 25
165 -5 25
166 -5 25
167 -5 25
168 -5 25
169 -5 25
170 -5 15
171 -5 15
172 -5 15
173 -5 15
174 -5 15
175 -23 -18
176 -23 -18
177 -23 -18
178 -23 -18
179 -20 -21
180 -20 -21
181 -20 -21
182 -19 -16
183 -19 -16
184 -19 -16
185 -14 13
186 -14 13
187 -14 13
188 -14 13
189 15 -5
190 15 -5
191 15 -5
192 16 7
193 16 7
194 15 -20
195 15 -20
196 15 -20
197 15 -20
198 15 -20
199 15 -20
200 13 -14
201 13 -14
202 13 -14
203 13 -14
204 -23 3
205 -23 3
206 -23 3
207 -23 3
208 -23 3
209 2 17
210 2 17
211 2 17
212 2 17
213 2 17
214 2 17
215 14 14
216 14 14
217 14 14
218 14 14
219 17 29
220 17 29
221 17 29
222 17 29
223 -15 -9
224 -15 -9
225 -15 -9
226 -15 -9
227 5 -5
228 5 -5
229 5 -5
230 5 -5
231 -14 12
232 -14 12
233 -14 12
234 -14 12
235 -14 12
236 -14 12
237 -14 12
238 -18 28
239 -18 28
240 -18 28
241 -18 28
242 -18 28
243 -18 28
244 -18 28
245 -4 27
246 -4 27
247 -4 27
248 17 -2
249 17 -2
250 17 -2
251 17 -2
252 17 -2
253 17 -2
254 16 -14
255 16 -14
256 16 -14
257 7 6
258 7 6
259 7 6
260 7 6
261 -4 -3
262 -4 -3
263 -4 -3
264 -30 -10
265 -23 7
266 -23 7
267 -23 7
268 1 -19
269 1 -19
270 17 6
271 17 6
272 17 6
273 17 6
274 17 6
275 -8 -12
276 -8 -12
277 -8 -12
278 -8 -12
279 -8 -12
280 -8 -12
281 -18 -2
282 -18 -2
283 -18 -2
284 -18 -2
285 -18 -2
286 -18 -2
287 -22 -22
288 -22 -22
289 -22 -22
290 -22 -22
291 22 23
292 22 23
293 22 23
294 22 23
295 22 23
296 22 23
297 22 23
298 27 7
299 27 7
300 27 7
301 27 7
302 27 7
303 27 7
304 7 22
305 7 22
306 7 22
307 7 22
308 7 22
309 -19 22
310 -19 22
311 -19 22
312 -27 17
313 -27 17
314 -27 17
315 -27 17
316 -27 17
317 -28 3
318 -28 3
319 -28 3
320 -28 3
321 -28 3
322 -28 3
323 -28 3
324 -8 33
325 -8 33
326 -8 33
327 -5 13
328 -5 13
329 -5 13
330 -5 13
331 8 32
332 8 32
333 8 32
334 8 32
335 8 32
336 23 13
337 23 13
338 23 13
339 23 13
340 23 13
341 23 13
342 23 -8
343 23 -8
344 23 -8
345 23 -8
346 2 34
347 2 34
348 2 34
349 2 34
350 3 11
351 3 11
352 3 11
353 3 11
354 11 -25
355 11 -25
356 26 -2
357 26 -2
358 26 -2
359 26 -2
360 26 -2
361 27 28
362 27 28
363 27 28
364 28 34
365 28 34
366 28 34
367 28 34
368 28 34
369 28 34
370 28 34
371 -3 -13
372 -3 -13
373 -3 -13
374 10 0
375 10 0
376 10 0
377 10 0
378 10 0
379 10 0
380 10 0
381 24 -20
382 24 -20
383 24 -20
384 24 -20
385 -30 -29
386 -30 -29
387 -30 -29
388 -30 -29
389 -30 -29
390 -30 -29
391 -25 -18
392 -25 -18
393 -25 -18
394 -25 -18
395 -25 -18
396 -14 -25
397 -14 -25
398 -14 -25
399 -14 -25
400 -30 29
401 -30 29
402 -30 29
403 -30 29
404 -30 29
405 -5 -20
406 -5 -20
407 -5 -20
408 -5 -20
409 4 -25
410 4 -25
411 4 -25
412 4 -25
413 4 -25
414 -3 4
415 -3 4
416 -3 4
417 -3 4
418 -3 4
419 -10 -3
420 -10 -3
421 -10 -3
422 -10 20
423 -10 20
424 13 -7
425 13 -7
426 13 -7
427 13 -7
428 21 2
429 21 2
430 6 14
431 6 14
432 6 14
433 6 14
434 6 14
435 0 -18
436 0 -18
437 0 -18
438 0 -18
439 20 10
440 20 10
441 20 10
442 20 -15
443 20 -15
444 -20 -5
445 -20 -5
446 -20 -5
447 -20 -5
448 -20 -5
449 -20 -5
450 -10 -5
451 -10 -5
452 -10 -5
453 -10 -5
454 -15 15
455 -15 15
456 -15 15
457 -15 15
458 -15 15
459 -25 8
460 -25 8
461 -25 8
462 -25 8
463 20 25
464 20 25
465 20 25
466 20 25
467 -5 25
468 -5 25
469 -5 25
470 -15 30
471 -15 30
472 -15 30
473 -15 30
474 15 0
475 15 0
476 15 0
477 15 0
478 -5 -10
479 -5 -10
480 -5 -10
481 -5 -10
482 -20 -25
483 -5 -30
484 -5 -30
485 -5 -30
486 -25 -15
487 -25 -15
488 -25 -15
489 -25 -15
490 -25 -15
491 -30 -5
492 -30 -5
493 -15 5
494 -15 5
495 -15 5
496 -15 5
497 -15 5
498 -20 25
499 -20 25
500 -20 25
501 -20 25
502 -20 25
503 10 30
504 10 30
505 10 -15
506 10 -15
507 10 -15
508 10 -15
509 10 -15
510 10 -25
511 10 -25
512 10 -25
513 10 -25
514 20 -30
515 20 -30
516 20 -30
517 20 -30
518 20 -30
519 20 -30
520 30 0
521 30 0
522 30 0
523 30 -15
524 30 -15
525 10 -5
526 10 -5
527 10 -5
528 10 -5
529 0 5
530 0 5
531 0 5
532 6 2
533 6 2
534 6 2
535 6 2
536 6 2
537 6 2
538 29 7
539 29 7
540 29 7
541 29 7
542 29 7
543 29 7
544 5 25
545 5 25
546 5 25
547 5 25
548 5 25
549 -4 17
550 -4 17
551 -4 17
552 -4 17
553 -4 17
554 0 34
555 0 34
556 0 34
557 18 17
558 18 17
559 18 17
560 18 17
561 18 17
562 18 17
563 30 20
564 30 20
565 30 20
566 28 30
567 28 30
568 28 30
569 28 30
570 28 30
571 28 30
572 28 30
573 -33 25
574 -33 25
575 -33 25
576 -15 -15
577 -15 -15
578 -15 -15
579 -15 -15
580 -15 -15
581 -30 -30
582 -30 -30
583 -30 -30
584 -30 -30
585 25 -23
586 25 -23
587 25 -23
588 5 -10
589 5 -10
590 5 -10
591 7 -28
592 7 -28
593 7 -28
594 7 -28
595 7 -28
596 -11 -23
597 -11 -23
598 -11 -23
599 -11 -23
600 -12 -32
601 -12 -32
602 -12 -32
603 -12 -32
604 -12 -32
605 -12 -32
606 -24 -21
607 -24 -21
608 -24 -21
609 -24 -21
610 -24 -21
611 -29 3
612 -29 3
613 -29 3
614 -29 3
615 -33 13
616 -33 13
617 -33 13
618 -33 13
619 -27 21
620 -27 21
621 -27 21
622 -27 21
623 -27 21
624 -22 17
625 -22 17
626 -22 17
627 -22 17
628 -22 17
629 -22 17
630 -22 17
631 -29 33
632 -29 33
633 -29 33
634 -29 33
635 -29 33
636 12 12
637 12 12
638 12 12
639 12 12
640 14 23
641 14 23
642 14 23
643 14 23
644 14 23
645 -8 8
646 -8 8
647 -8 8
648 -8 8
649 -8 8
650 -8 8
651 2 -4
652 2 -4
653 2 -4
654 2 -4
655 2 -4
656 22 -6
657 22 -6
658 22 -6
659 22 -6
660 22 -6
661 22 -6
662 22 -6
663 28 -12
664 28 -12
665 28 -12
666 28 -12
667 18 -23
668 18 -23
669 18 -23
670 18 -23
671 -3 -23
672 -3 -23
673 1 -9
674 1 -9
675 1 -9
676 1 -9
677 1 -9
678 -14 -11
679 -14 -11
680 -14 -11
681 -14 -11
682 -14 -11
683 -18 -1
684 -18 -1
685 -18 -1
686 -18 -1
687 -18 -1
688 -23 -11
689 -23 -11
690 -23 -11
691 -11 23
692 -8 34
693 -8 34
694 -20 42
695 -20 42
696 27 42
697 27 42
698 14 38
699 32 -30
700 32 -30
701 21 4
702 21 4
703 21 4
704 21 4
705 21 4
706 21 4
707 21 4
708 2 12
709 2 12
710 2 12
711 2 12
712 2 12
713 2 12
714 2 21
715 2 21
716 22 33
717 12 -19
718 12 -19
719 9 -18
720 9 -18
721 9 -18
722 9 -18
723 9 -18
724 11 -22
725 11 -22
726 11 -22
727 11 -22
728 11 -22
729 11 -22
730 14 -24
731 14 -24
732 14 -24
733 14 -24
734 14 -24
735 14 7
736 14 7
737 14 7
738 14 7
739 14 7
740 14 7
741 18 8
742 18 8
743 18 8
744 18 8
745 26 17
746 26 17
747 26 17
748 22 13
749 22 13
750 22 13
751 21 2
752 21 2
753 21 2
754 21 2
755 21 2
756 20 19
757 20 19
758 20 19
759 20 19
760 20 19
761 -20 12
762 -20 12
763 -20 12
764 -20 12
765 -21 2
766 -21 2
767 -21 2
768 -24 -4
769 -24 -4
770 -24 -4
771 -24 -4
772 -24 -4
773 -19 -13
774 -31 -17
775 -7 -17
776 -7 -17
777 -9 17
778 -9 17
779 -9 17
780 -9 17
781 -9 17
782 -9 0
783 -9 0
784 -9 0
785 -9 0
786 -9 0
787 -4 32
788 -4 32
789 -4 32
790 -4 32
791 -4 32
792 -20 -16
793 -20 -16
794 -20 -16
795 -13 -13
796 -13 -13
797 -13 -13
798 -13 -13
799 -13 -13
800 -13 -13
801 -17 -11
802 -17 -11
803 -17 -11
804 -17 -11
805 -9 -8
806 -9 -8
807 -9 -8
808 -9 -8
809 -10 -11
810 -10 -11
811 -10 -11
812 -13 -8
813 -13 -8
814 -13 -8
815 -10 -14
816 -10 -14
817 -10 -14
818 -10 -14
819 -10 -14
820 -16 -14
821 -16 -14
822 -16 -14
823 -16 -14
824 -16 -14
825 -16 -14
826 -15 -9
827 -15 -9
828 -15 -9
829 -15 -9
830 -15 -9
831 -17 -17
832 -17 -17
833 -17 -17
DEMAND_SECTION
1 0
2 200
3 200
4 10
5 10
6 10
7 10
8 200
9 50
10 100
11 50
12 10
13 10
14 10
15 10
16 200
17 100
18 10
19 10
20 200
21 200
22 50
23 10
24 200
25 200
26 10
27 10
28 10
29 10
30 200
31 50
32 10
33 10
34 10
35 10
36 100
37 10
38 10
39 10
40 10
41 100
42 50
43 10
44 10
45 10
46 100
47 10
48 200
49 200
50 10
51 10
52 200
53 50
54 200
55 50
56 10
57 10
58 10
59 200
60 100
61 200
62 100
63 50
64 10
65 10
66 10
67 200
68 10
69 100
70 10
71 10
72 10
73 200
74 100
75 200
76 200
77 10
78 10
79 10
80 10
81 200
82 100
83 10
84 100
85 10
86 10
87 10
88 10
89 200
90 100
91 50
92 200
93 100
94 50
95 10
96 200
97 100
98 10
99 10
100 10
101 200
102 200
103 10
104 200
105 100
106 50
107 10
108 10
109 10
110 10
111 100
112 10
113 200
114 200
115 10
116 100
117 50
118 10
119 100
120 10
121 10
122 10
123 10
124 200
125 200
126 10
127 10
128 10
129 10
130 200
131 200
132 10
133 10
134 200
135 200
136 10
137 10
138 10
139 100
140 50
141 10
142 10
143 10
144 200
145 200
146 10
147 10
148 10
149 200
150 50
151 10
152 10
153 10
154 10
155 200
156 200
157 10
158 200
159 50
160 10
161 10
162 10
163 10
164 200
165 50
166 10
167 10
168 10
169 10
170 200
171 200
172 10
173 10
174 10
175 100
176 50
177 10
178 10
179 100
180 10
181 10
182 200
183 100
184 50
185 200
186 100
187 50
188 10
189 200
190 200
191 50
192 200
193 10
194 200
195 50
196 10
197 10
198 10
199 10
200 200
201 50
202 10
203 10
204 200
205 200
206 10
207 10
208 10
209 200
210 100
211 10
212 10
213 10
214 10
215 200
216 100
217 50
218 10
219 200
220 100
221 50
222 10
223 100
224 10
225 10
226 10
227 200
228 200
229 50
230 10
231 200
232 100
233 50
234 10
235 10
236 10
237 10
238 200
239 100
240 50
241 10
242 10
243 10
244 10
245 200
246 10
247 10
248 200
249 100
250 50
251 10
252 10
253 10
254 200
255 50
256 10
257 200
258 10
259 10
260 10
261 200
262 200
263 50
264 200
265 200
266 10
267 10
268 200
269 10
270 200
271 10
272 10
273 10
274 10
275 200
276 50
277 10
278 10
279 10
280 10
281 200
282 200
283 10
284 10
285 10
286 10
287 100
288 10
289 10
290 10
291 200
292 200
293 50
294 10
295 10
296 10
297 10
298 200
299 200
300 10
301 10
302 10
303 10
304 200
305 200
306 50
307 10
308 10
309 200
310 200
311 50
312 200
313 200
314 10
315 10
316 10
317 200
318 200
319 50
320 10
321 10
322 10
323 10
324 100
325 10
326 10
327 200
328 10
329 10
330 10
331 200
332 100
333 10
334 10
335 10
336 200
337 100
338 50
339 10
340 10
341 10
342 200
343 100
344 10
345 10
346 200
347 200
348 10
349 10
350 200
351 100
352 50
353 10
354 200
355 10
356 200
357 100
358 50
359 10
360 10
361 200
362 100
363 50
364 200
365 200
366 50
367 10
368 10
369 10
370 10
371 200
372 200
373 10
374 200
375 200
376 50
377 10
378 10
379 10
380 10
381 200
382 200
383 10
384 10
385 200
386 200
387 10
388 10
389 10
390 10
391 100
392 10
393 10
394 10
395 10
396 200
397 200
398 10
399 10
400 200
401 100
402 10
403 10
404 10
405 100
406 50
407 10
408 10
409 200
410 200
411 50
412 10
413 10
414 200
415 100
416 50
417 10
418 10
419 200
420 200
421 10
422 200
423 200
424 200
425 50
426 10
427 10
428 200
429 200
430 100
431 10
432 10
433 10
434 10
435 200
436 100
437 50
438 10
439 200
440 200
441 10
442 200
443 200
444 200
445 200
446 50
447 10
448 10
449 10
450 200
451 50
452 10
453 10
454 100
455 50
456 10
457 10
458 10
459 100
460 10
461 10
462 10
463 200
464 100
465 10
466 10
467 200
468 10
469 10
470 200
471 200
472 50
473 10
474 200
475 200
476 50
477 10
478 200
479 100
480 50
481 10
482 100
483 200
484 10
485 10
486 200
487 100
488 50
489 10
490 10
491 200
492 50
493 200
494 10
495 10
496 10
497 10
498 200
499 200
500 10
501 10
502 10
503 200
504 200
505 200
506 200
507 50
508 10
509 10
510 200
511 10
512 10
513 10
514 200
515 50
516 10
517 10
518 10
519 10
520 100
521 10
522 10
523 200
524 50
525 200
526 100
527 50
528 10
529 200
530 100
531 10
532 200
533 200
534 50
535 10
536 10
537 10
538 200
539 50
540 10
541 10
542 10
543 10
544 200
545 100
546 50
547 10
548 10
549 200
550 50
551 10
552 10
553 10
554 200
555 100
556 50
557 200
558 100
559 10
560 10
561 10
562 10
563 200
564 200
565 10
566 200
567 100
568 50
569 10
570 10
571 10
572 10
573 200
574 200
575 10
576 200
577 100
578 10
579 10
580 10
581 200
582 100
583 10
584 10
585 200
586 10
587 10
588 200
589 10
590 10
591 200
592 200
593 50
594 10
595 10
596 200
597 100
598 10
599 10
600 200
601 100
602 10
603 10
604 10
605 10
606 200
607 100
608 10
609 10
610 10
611 100
612 50
613 10
614 10
615 200
616 100
617 50
618 10
619 200
620 100
621 50
622 10
623 10
624 200
625 200
626 50
627 10
628 10
629 10
630 10
631 100
632 50
633 10
634 10
635 10
636 200
637 100
638 10
639 10
640 200
641 10
642 10
643 10
644 10
645 200
646 50
647 10
648 10
649 10
650 10
651 100
652 10
653 10
654 10
655 10
656 200
657 200
658 50
659 10
660 10
661 10
662 10
663 200
664 50
665 10
666 10
667 200
668 50
669 10
670 10
671 100
672 10
673 200
674 100
675 50
676 10
677 10
678 100
679 10
680 10
681 10
682 10
683 100
684 50
685 10
686 10
687 10
688 200
689 100
690 10
691 100
692 100
693 50
694 100
695 10
696 100
697 50
698 100
699 200
700 200
701 200
702 200
703 50
704 10
705 10
706 10
707 10
708 100
709 50
710 10
711 10
712 10
713 10
714 100
715 10
716 100
717 200
718 200
719 200
720 50
721 10
722 10
723 10
724 200
725 100
726 10
727 10
728 10
729 10
730 100
731 50
732 10
733 10
734 10
735 200
736 100
737 10
738 10
739 10
740 10
741 200
742 50
743 10
744 10
745 200
746 100
747 50
748 200
749 100
750 10
751 200
752 50
753 10
754 10
755 10
756 200
757 200
758 10
759 10
760 10
761 200
762 100
763 50
764 10
765 200
766 10
767 10
768 200
769 100
770 10
771 10
772 10
773 200
774 200
775 200
776 200
777 200
778 200
779 10
780 10
781 10
782 100
783 50
784 10
785 10
786 10
787 200
788 50
789 10
790 10
791 10
792 200
793 50
794 10
795 200
796 50
797 10
798 10
799 10
800 10
801 200
802 200
803 50
804 10
805 200
806 200
807 50
808 10
809 100
810 50
811 10
812 100
813 10
814 10
815 200
816 100
817 10
818 10
819 10
820 200
821 200
822 10
823 10
824 10
825 10
826 200
827 100
828 50
829 10
830 10
831 200
832 10
833 10
DEPOT_SECTION
1
-1
EOF