Normalized Data/p10_1050_tsplib0_normalized_splitx10_0.sol
832 -8 409 410 411 412 408 594 591 590 593 592 -10 454 457 310 309 308 497 499 501 500 498 -13 14 11 9 12 230 231 236 235 234 232 233 184 187 186 185 414 -16 15 17 374 373 18 533 532 536 534 -20 442 21 441 22 19 118 121 122 119 120 -26 28 27 25 24 23 413 529 528 530 -30 34 29 558 557 556 147 146 145 143 144 -32 33 31 292 293 294 296 290 291 295 759 757 758 755 756 559 561 560 -38 39 37 36 339 336 340 337 564 563 562 744 745 746 -43 44 40 41 42 466 168 165 167 467 166 163 164 468 551 549 552 548 550 -51 211 210 208 213 209 304 306 303 305 307 -52 714 713 46 45 330 333 332 334 331 543 544 547 545 546 212 709 -59 58 360 361 362 567 565 571 568 569 105 109 107 -67 765 764 766 203 206 204 493 492 496 495 494 -71 69 70 68 328 329 421 422 778 779 776 777 780 -73 72 618 621 620 313 311 312 314 315 -82 81 80 699 698 584 586 585 -84 83 85 87 86 509 511 512 510 354 353 733 729 731 730 732 723 726 727 725 -88 598 595 596 597 398 397 396 395 817 818 -89 90 599 601 604 602 603 600 482 484 483 670 671 405 404 406 407 -92 263 773 606 605 607 609 608 178 179 180 831 832 -104 103 108 106 429 430 433 432 431 712 708 710 707 711 349 352 351 350 -117 115 116 155 154 156 383 381 382 380 -131 132 129 130 628 627 623 624 453 455 456 -136 137 134 133 135 806 807 805 804 -141 140 742 743 74 79 77 75 78 76 338 335 747 749 748 -190 189 188 475 473 474 476 379 377 375 378 -198 194 193 197 196 195 716 717 719 718 720 651 654 -205 207 316 320 318 322 321 317 319 610 611 612 613 490 491 93 94 447 -221 218 219 220 48 49 47 50 464 462 -225 829 825 827 224 222 828 223 826 801 802 803 800 -227 229 588 589 587 673 674 672 7 676 675 -237 241 242 243 239 240 238 101 100 102 470 -245 246 244 553 554 555 345 346 348 347 -247 252 251 249 250 657 658 656 660 659 655 661 344 341 343 -248 110 111 358 355 357 359 356 519 520 521 54 55 57 56 53 376 -253 254 255 200 201 199 202 505 504 506 508 507 -256 258 257 259 214 215 217 216 638 635 637 636 -260 478 480 477 479 370 371 372 -261 262 449 451 450 452 418 420 419 -265 98 97 99 614 615 616 617 574 572 573 622 619 626 625 629 -266 264 460 458 461 459 95 96 760 763 761 762 -268 267 112 114 113 434 437 436 435 -270 272 273 271 269 741 740 438 35 440 439 -279 276 275 277 274 278 814 816 815 774 775 -282 284 285 281 280 283 686 685 682 683 684 66 783 781 784 785 782 -287 286 288 289 389 386 384 387 388 385 583 581 580 582 481 -302 301 299 300 297 298 540 542 538 539 537 541 751 427 -325 324 323 692 691 125 124 126 127 123 128 790 788 789 786 787 -327 326 172 171 173 169 170 649 645 644 646 647 648 417 416 415 -342 62 61 64 65 60 63 663 662 665 664 523 522 -399 402 401 400 403 630 634 632 631 633 693 694 472 469 471 690 -444 448 445 446 443 91 768 771 769 767 770 -465 463 566 570 366 364 367 368 369 365 363 695 696 715 641 643 640 -503 502 697 159 161 158 162 160 157 642 639 -526 525 524 527 424 426 425 423 226 228 650 653 652 -531 535 138 139 142 192 191 737 734 738 735 739 736 -668 669 666 667 148 152 153 151 149 150 518 514 516 513 517 515 728 724 722 721 -680 681 678 677 679 821 824 819 822 823 820 576 578 575 577 579 795 -688 687 689 487 485 488 489 486 391 394 392 393 390 175 176 174 177 793 -706 701 700 703 704 702 705 750 428 752 753 754 -772 792 791 181 183 182 830 -810 809 808 796 799 6 1 797 794 4 2 5 3 798 813 811 812 0 





OBJ=
3525.363
BEST_KNOWN=
0.000